NAME : sim33.67976.tour
COMMENT : Length = 67976
COMMENT : Found by LKH [Keld Helsgaun] Fri Sep 14 13:34:50 2018
TYPE : TOUR
DIMENSION : 33
TOUR_SECTION
1
7
20
30
27
5
9
2
13
22
10
33
32
26
17
19
8
18
25
23
12
14
6
24
15
21
31
3
28
11
16
4
29
-1
EOF
